l=34480;
a=5;
setup_costs=[|3,1,2,1,2,
|2,0,2,3,2,
|2,2,2,1,0,
|3,1,2,0,2,
|3,2,0,2,1,
|0,0,0,0,0,|];
setup_times=[|3,2,2,0,1,
|2,2,1,0,2,
|2,0,3,2,1,
|0,1,2,3,3,
|2,1,2,1,0,
|0,0,0,0,0,|];
m=2;
min_cap=[0, 0];
max_cap=[20, 20];

initState=[4, 5];
s=2;
m_a_s = [|24052,33345,
|2139,2860|];
m_a_e = [|29170,34453,
|2587,12646|];
n=1000;
eligible_machine =[{1}, {1, 2}, {2}, {1, 2}, {1}, {1}, {1, 2}, {1, 2}, {1, 2}, {1, 2}, {1, 2}, {2}, {1}, {2}, {2}, {1, 2}, {1, 2}, {1}, {2}, {1, 2}, {2}, {1, 2}, {1}, {1}, {2}, {1}, {1, 2}, {1, 2}, {2}, {1}, {2}, {1, 2}, {2}, {1, 2}, {2}, {1, 2}, {2}, {2}, {1, 2}, {1, 2}, {1, 2}, {2}, {2}, {1, 2}, {1, 2}, {1}, {1, 2}, {2}, {2}, {1}, {1, 2}, {1, 2}, {1, 2}, {2}, {1}, {1, 2}, {1, 2}, {1, 2}, {1, 2}, {2}, {1}, {2}, {1, 2}, {1, 2}, {2}, {2}, {1, 2}, {1, 2}, {1, 2}, {1, 2}, {1, 2}, {2}, {2}, {2}, {1, 2}, {2}, {2}, {1, 2}, {1}, {1, 2}, {1}, {1, 2}, {1}, {2}, {1, 2}, {1, 2}, {1, 2}, {1}, {2}, {1}, {2}, {1, 2}, {2}, {1, 2}, {2}, {1}, {1, 2}, {1, 2}, {1}, {1}, {1, 2}, {1, 2}, {2}, {2}, {1, 2}, {1, 2}, {1, 2}, {1, 2}, {1, 2}, {1}, {1, 2}, {1, 2}, {2}, {2}, {1, 2}, {1}, {1}, {1}, {2}, {2}, {1}, {2}, {2}, {2}, {1}, {2}, {1, 2}, {2}, {2}, {1}, {1}, {2}, {1, 2}, {1, 2}, {1, 2}, {2}, {1}, {1, 2}, {1, 2}, {2}, {1}, {2}, {1}, {1}, {1}, {1}, {1}, {1}, {1}, {1, 2}, {2}, {2}, {1, 2}, {1, 2}, {1, 2}, {1, 2}, {1}, {1, 2}, {1}, {1, 2}, {1, 2}, {1, 2}, {1, 2}, {1}, {1, 2}, {1, 2}, {2}, {1, 2}, {1}, {1, 2}, {2}, {2}, {2}, {1}, {2}, {1, 2}, {1}, {2}, {1, 2}, {1, 2}, {2}, {1}, {1, 2}, {1, 2}, {2}, {1, 2}, {1, 2}, {1, 2}, {1, 2}, {1, 2}, {1}, {1}, {1, 2}, {2}, {1, 2}, {1, 2}, {2}, {2}, {1}, {1}, {1, 2}, {2}, {1, 2}, {2}, {2}, {1}, {1, 2}, {1, 2}, {2}, {1, 2}, {1, 2}, {2}, {1, 2}, {2}, {1, 2}, {2}, {1, 2}, {1, 2}, {1}, {1, 2}, {1, 2}, {1}, {2}, {1, 2}, {1, 2}, {2}, {1}, {1}, {1, 2}, {1, 2}, {1, 2}, {1}, {1, 2}, {1, 2}, {1, 2}, {2}, {2}, {1, 2}, {1, 2}, {1, 2}, {2}, {1}, {1, 2}, {1, 2}, {2}, {1, 2}, {1, 2}, {1}, {2}, {2}, {1}, {2}, {1, 2}, {1, 2}, {1, 2}, {1, 2}, {1, 2}, {1, 2}, {2}, {1, 2}, {1, 2}, {1}, {2}, {2}, {1, 2}, {1, 2}, {1, 2}, {2}, {2}, {1, 2}, {1, 2}, {2}, {1, 2}, {2}, {1, 2}, {1, 2}, {1, 2}, {1}, {1, 2}, {1, 2}, {1}, {1, 2}, {2}, {1, 2}, {1, 2}, {1, 2}, {1}, {2}, {1, 2}, {2}, {1, 2}, {1, 2}, {1, 2}, {1, 2}, {1, 2}, {2}, {2}, {1}, {1, 2}, {1, 2}, {1, 2}, {1, 2}, {2}, {1}, {1, 2}, {1, 2}, {2}, {1}, {1}, {2}, {2}, {1, 2}, {1, 2}, {1, 2}, {1}, {1, 2}, {1, 2}, {1, 2}, {1}, {1, 2}, {1, 2}, {1, 2}, {1, 2}, {1, 2}, {1, 2}, {2}, {1, 2}, {1, 2}, {1}, {1, 2}, {1, 2}, {1}, {1}, {1, 2}, {1, 2}, {1, 2}, {1}, {1, 2}, {2}, {2}, {1, 2}, {1, 2}, {1, 2}, {1}, {1, 2}, {1, 2}, {2}, {1, 2}, {1}, {1}, {1, 2}, {2}, {1, 2}, {1, 2}, {1, 2}, {1}, {1, 2}, {1, 2}, {2}, {1, 2}, {1}, {1, 2}, {1}, {1, 2}, {1, 2}, {2}, {1, 2}, {1}, {1, 2}, {2}, {1, 2}, {1, 2}, {1, 2}, {1}, {1}, {1}, {1}, {1, 2}, {1, 2}, {1, 2}, {2}, {1, 2}, {1}, {1}, {1, 2}, {1, 2}, {1, 2}, {2}, {2}, {1}, {1}, {1, 2}, {2}, {1}, {1, 2}, {2}, {1, 2}, {1, 2}, {1}, {1, 2}, {1}, {1, 2}, {1, 2}, {2}, {1, 2}, {1}, {1}, {1}, {2}, {1}, {1, 2}, {1, 2}, {2}, {2}, {1, 2}, {1, 2}, {2}, {2}, {2}, {1, 2}, {2}, {1, 2}, {2}, {1, 2}, {1, 2}, {1, 2}, {1}, {1, 2}, {1, 2}, {1, 2}, {1, 2}, {2}, {1}, {2}, {1}, {1, 2}, {1, 2}, {1}, {2}, {1, 2}, {1, 2}, {1, 2}, {2}, {1, 2}, {1, 2}, {1, 2}, {1, 2}, {1, 2}, {2}, {1, 2}, {1}, {2}, {1, 2}, {1, 2}, {2}, {1}, {1, 2}, {1, 2}, {1, 2}, {2}, {2}, {2}, {1, 2}, {1, 2}, {1}, {1}, {2}, {1}, {2}, {1, 2}, {2}, {2}, {1, 2}, {2}, {2}, {1, 2}, {1, 2}, {1, 2}, {1}, {1, 2}, {1, 2}, {1, 2}, {1, 2}, {1, 2}, {2}, {1, 2}, {1, 2}, {1, 2}, {1, 2}, {1, 2}, {2}, {1, 2}, {1}, {1, 2}, {1, 2}, {1, 2}, {2}, {1}, {2}, {1}, {1, 2}, {1}, {1}, {1, 2}, {1}, {1, 2}, {2}, {1}, {1}, {1, 2}, {2}, {2}, {1, 2}, {2}, {2}, {2}, {1}, {1, 2}, {1, 2}, {2}, {1}, {1, 2}, {1}, {1, 2}, {1}, {1, 2}, {1, 2}, {1}, {1}, {1}, {1, 2}, {1}, {2}, {1, 2}, {2}, {1, 2}, {2}, {1, 2}, {1}, {1, 2}, {1, 2}, {2}, {2}, {2}, {1}, {1, 2}, {1}, {2}, {1}, {1, 2}, {2}, {1}, {1}, {1, 2}, {1, 2}, {1, 2}, {2}, {1, 2}, {1}, {1}, {2}, {2}, {1, 2}, {1, 2}, {1, 2}, {2}, {1, 2}, {1, 2}, {1, 2}, {1, 2}, {1}, {1, 2}, {1, 2}, {2}, {1, 2}, {2}, {2}, {1, 2}, {1, 2}, {1, 2}, {1, 2}, {2}, {1, 2}, {2}, {1, 2}, {1}, {1, 2}, {1, 2}, {1, 2}, {1}, {1, 2}, {1, 2}, {2}, {2}, {1}, {1, 2}, {1}, {1, 2}, {1, 2}, {2}, {2}, {1}, {1, 2}, {1, 2}, {1}, {1, 2}, {1, 2}, {2}, {1}, {1, 2}, {2}, {1, 2}, {1, 2}, {1}, {1, 2}, {1, 2}, {2}, {2}, {1, 2}, {1, 2}, {1, 2}, {1}, {1}, {1, 2}, {1, 2}, {1, 2}, {1, 2}, {1}, {2}, {1}, {1}, {1, 2}, {1, 2}, {1, 2}, {1}, {1}, {1}, {2}, {2}, {1, 2}, {1}, {2}, {2}, {1, 2}, {1}, {1, 2}, {1}, {2}, {1, 2}, {1, 2}, {2}, {1, 2}, {1, 2}, {1}, {1}, {1, 2}, {2}, {1}, {2}, {1}, {1}, {1}, {1, 2}, {1, 2}, {1, 2}, {1, 2}, {1, 2}, {2}, {1, 2}, {1, 2}, {1, 2}, {1, 2}, {1}, {1, 2}, {1, 2}, {1, 2}, {1, 2}, {1, 2}, {1, 2}, {2}, {1, 2}, {1, 2}, {1, 2}, {1, 2}, {1, 2}, {2}, {1, 2}, {1}, {1}, {1, 2}, {1}, {1, 2}, {1, 2}, {1, 2}, {1, 2}, {2}, {1, 2}, {1, 2}, {1}, {1, 2}, {1}, {1}, {1}, {2}, {1, 2}, {2}, {1, 2}, {1, 2}, {1}, {1, 2}, {1}, {1}, {1}, {1, 2}, {1, 2}, {2}, {1, 2}, {2}, {1, 2}, {2}, {1, 2}, {1, 2}, {2}, {1}, {1}, {2}, {1, 2}, {1, 2}, {2}, {1, 2}, {1, 2}, {2}, {1, 2}, {2}, {1, 2}, {1, 2}, {2}, {1, 2}, {1, 2}, {2}, {1, 2}, {1, 2}, {1}, {1, 2}, {1, 2}, {1, 2}, {1, 2}, {1, 2}, {1, 2}, {1, 2}, {1}, {1}, {1, 2}, {1, 2}, {1, 2}, {1}, {1, 2}, {1, 2}, {1}, {1, 2}, {1}, {1, 2}, {1, 2}, {1, 2}, {1, 2}, {1, 2}, {1, 2}, {1}, {1, 2}, {2}, {1, 2}, {1, 2}, {1, 2}, {1}, {1, 2}, {1, 2}, {2}, {1, 2}, {2}, {1}, {1, 2}, {1}, {1, 2}, {2}, {1}, {1}, {1, 2}, {1}, {2}, {1, 2}, {2}, {1, 2}, {1, 2}, {1}, {2}, {2}, {1}, {2}, {1}, {1, 2}, {1, 2}, {1}, {1}, {1}, {1}, {2}, {2}, {1}, {1}, {1}, {2}, {1}, {1, 2}, {2}, {1, 2}, {1}, {1, 2}, {1}, {1}, {1, 2}, {1, 2}, {1, 2}, {1}, {2}, {1, 2}, {1}, {2}, {1, 2}, {1, 2}, {1}, {1, 2}, {1}, {1, 2}, {1, 2}, {1, 2}, {1}, {1, 2}, {1, 2}, {1}, {1, 2}, {2}, {2}, {1, 2}, {2}, {1}, {1}, {2}, {2}, {1}, {1, 2}, {1, 2}, {1, 2}, {1}, {1, 2}, {1, 2}, {1}, {1}, {2}, {1, 2}, {1, 2}, {1, 2}, {1, 2}, {1}, {2}, {1}, {1, 2}, {1, 2}, {1, 2}, {2}, {2}, {1}, {1, 2}, {1, 2}, {2}, {1}, {1, 2}, {2}, {2}, {1, 2}, {1}, {2}, {1, 2}, {1, 2}, {2}, {1, 2}, {1, 2}, {1, 2}, {1, 2}, {1, 2}, {1, 2}, {1, 2}, {1}, {2}, {1, 2}, {2}, {1, 2}, {1, 2}, {2}, {2}, {1, 2}, {1}, {2}, {2}, {2}, {2}, {2}, {2}, {1, 2}, {2}, {2}, {1}, {1, 2}, {1, 2}, {1, 2}, {2}, {1, 2}, {1, 2}, {1}, {1}, {2}, {1}, {1, 2}, {2}, {1, 2}, {2}, {2}, {1, 2}, {2}, {1, 2}, {1, 2}, {1, 2}, {1, 2}, {2}, {1, 2}, {2}, {1, 2}, {1}, {2}, {1, 2}, {1, 2}, {1, 2}, {1, 2}, {2}, {1, 2}, {1, 2}, {1, 2}, {1, 2}, {1}, {2}, {1, 2}, {1, 2}, {2}, {2}, {1, 2}, {1, 2}, {2}, {1, 2}, {1, 2}, {1}, {2}, {1, 2}, {2}, {1, 2}, {2}, {1}, {1}, {2}, {1, 2}, {1}, {1}, {1, 2}, {1}, {1, 2}, {1, 2}, {1, 2}, {1, 2}, {1, 2}, {1, 2}, {2}, {1}, {1}, {1}, {1}, {1}, {2}, {1, 2}, {2}, {2}, {1, 2}, {1, 2}, {1, 2}, {2}, {1}, {1, 2}, {1, 2}, {2}, {1, 2}, {1, 2}, {1}, {1, 2}];
earliest_start=[514, 332, 378, 265, 368, 446, 240, 168, 356, 346, 274, 146, 130, 251, 47, 339, 59, 350, 119, 120, 229, 434, 541, 381, 24, 532, 219, 351, 101, 148, 211, 39, 411, 201, 472, 51, 183, 291, 342, 300, 416, 367, 444, 301, 224, 386, 247, 156, 108, 338, 396, 194, 175, 421, 276, 324, 26, 287, 58, 163, 270, 526, 370, 346, 380, 215, 83, 237, 53, 253, 237, 295, 250, 305, 433, 366, 358, 300, 226, 112, 391, 332, 341, 280, 532, 471, 10, 316, 397, 378, 385, 87, 127, 271, 178, 85, 423, 119, 252, 253, 184, 493, 190, 67, 16, 427, 219, 122, 490, 527, 277, 148, 2, 444, 472, 202, 342, 498, 246, 504, 63, 224, 334, 389, 322, 138, 220, 42, 12, 310, 370, 133, 233, 33, 142, 410, 169, 373, 202, 126, 217, 531, 220, 42, 6, 167, 283, 376, 280, 537, 268, 460, 289, 311, 411, 36, 409, 494, 446, 464, 401, 217, 277, 208, 485, 434, 453, 324, 297, 478, 162, 378, 346, 287, 495, 55, 69, 291, 135, 418, 391, 59, 515, 268, 519, 121, 159, 361, 374, 63, 322, 373, 16, 479, 304, 24, 13, 203, 41, 210, 119, 437, 481, 112, 480, 493, 287, 537, 517, 326, 305, 277, 439, 393, 121, 165, 227, 308, 321, 428, 480, 534, 365, 197, 426, 65, 548, 434, 27, 421, 505, 283, 299, 201, 117, 499, 485, 196, 181, 129, 403, 482, 487, 451, 500, 46, 435, 113, 161, 311, 89, 148, 470, 69, 59, 3, 512, 241, 254, 39, 191, 382, 4, 68, 0, 64, 115, 191, 54, 436, 537, 251, 66, 465, 191, 400, 270, 372, 405, 410, 159, 262, 241, 494, 79, 120, 297, 314, 503, 404, 238, 544, 241, 143, 35, 513, 236, 24, 1, 109, 363, 51, 133, 191, 340, 185, 454, 497, 38, 104, 446, 321, 59, 72, 187, 375, 223, 277, 389, 107, 135, 400, 524, 24, 294, 513, 423, 467, 476, 86, 199, 156, 231, 79, 380, 458, 518, 70, 36, 366, 230, 131, 221, 290, 525, 433, 391, 31, 71, 442, 201, 231, 49, 436, 494, 306, 185, 75, 361, 238, 481, 110, 195, 237, 252, 465, 366, 184, 242, 361, 21, 214, 371, 109, 325, 169, 176, 454, 0, 23, 136, 482, 271, 125, 387, 536, 538, 175, 334, 458, 263, 11, 420, 390, 136, 238, 386, 62, 458, 82, 45, 40, 496, 146, 524, 190, 525, 359, 140, 515, 242, 209, 327, 199, 463, 196, 183, 381, 197, 217, 385, 259, 418, 452, 331, 195, 469, 236, 281, 358, 78, 402, 239, 274, 168, 255, 504, 47, 525, 273, 58, 521, 543, 303, 289, 496, 531, 488, 282, 354, 136, 366, 374, 324, 89, 319, 340, 410, 313, 478, 470, 364, 3, 268, 428, 13, 87, 534, 347, 506, 130, 57, 109, 366, 142, 391, 271, 292, 165, 535, 22, 205, 70, 403, 295, 361, 367, 447, 77, 349, 321, 438, 36, 275, 111, 317, 475, 83, 440, 66, 23, 323, 398, 485, 504, 179, 52, 199, 527, 188, 324, 241, 185, 397, 142, 394, 112, 208, 362, 181, 90, 54, 351, 16, 249, 491, 381, 68, 240, 179, 165, 71, 67, 380, 257, 477, 118, 69, 159, 168, 192, 494, 475, 346, 275, 390, 418, 275, 542, 479, 326, 80, 87, 454, 132, 283, 113, 296, 164, 415, 119, 273, 257, 112, 195, 218, 519, 429, 109, 177, 38, 534, 39, 437, 526, 369, 60, 257, 319, 503, 312, 539, 184, 67, 156, 134, 37, 203, 294, 152, 31, 251, 194, 59, 453, 210, 240, 136, 45, 37, 490, 540, 315, 488, 324, 161, 403, 2, 184, 72, 79, 442, 419, 21, 52, 238, 130, 78, 257, 73, 168, 521, 537, 213, 292, 384, 241, 430, 83, 40, 540, 409, 5, 408, 34, 146, 336, 69, 172, 27, 11, 264, 400, 348, 415, 258, 81, 374, 183, 228, 471, 464, 234, 506, 412, 139, 132, 373, 498, 266, 212, 439, 535, 243, 129, 368, 540, 272, 275, 2, 364, 13, 159, 31, 519, 285, 171, 198, 507, 175, 138, 340, 216, 41, 329, 418, 416, 381, 4, 258, 172, 106, 256, 351, 6, 331, 61, 140, 407, 170, 296, 391, 450, 135, 289, 540, 128, 289, 282, 287, 26, 44, 50, 176, 325, 100, 323, 108, 116, 69, 375, 16, 261, 92, 182, 504, 308, 204, 516, 20, 249, 186, 174, 336, 166, 229, 193, 402, 470, 484, 478, 101, 293, 138, 83, 466, 183, 15, 533, 512, 202, 70, 124, 435, 430, 173, 73, 137, 495, 495, 418, 392, 484, 18, 452, 68, 128, 412, 78, 261, 234, 21, 359, 119, 522, 368, 248, 359, 341, 123, 500, 90, 134, 419, 334, 159, 249, 11, 205, 63, 373, 539, 169, 250, 282, 11, 64, 29, 140, 380, 203, 516, 546, 422, 399, 534, 96, 95, 157, 95, 408, 466, 266, 312, 358, 224, 148, 283, 157, 30, 546, 182, 154, 138, 512, 142, 379, 243, 326, 470, 327, 125, 236, 13, 172, 263, 454, 205, 366, 76, 150, 103, 288, 261, 544, 70, 501, 188, 139, 304, 339, 307, 366, 176, 195, 50, 221, 91, 235, 88, 538, 438, 261, 17, 22, 74, 99, 91, 25, 42, 409, 543, 59, 229, 384, 174, 401, 282, 361, 543, 171, 177, 193, 518, 43, 79, 144, 312, 53, 435, 279, 538, 106, 245, 147, 334, 263, 67, 496, 522, 543, 475, 518, 457, 323, 101, 232, 188, 271, 104, 323, 46, 494, 409, 447, 395, 405, 163, 467, 451, 309, 81, 366, 314, 437, 205, 343, 85, 297, 162, 437, 342, 513, 29, 400, 236, 434, 237, 411, 180, 487, 449, 490, 183, 495, 274, 437, 309, 516, 474, 41, 349, 13, 435, 40, 264, 71, 487, 228, 284, 201, 291, 297, 99, 488, 461, 371, 44, 401, 522, 152, 113, 399, 548, 330, 338, 305, 52, 518, 505, 28, 157, 135, 334, 465, 324, 168, 232, 445, 35, 496, 46, 364, 103, 116, 329, 299, 466, 423, 299];
latest_end=[518, 343, 393, 280, 372, 450, 250, 186, 368, 349, 292, 168, 146, 274, 62, 350, 78, 356, 149, 121, 260, 448, 544, 386, 33, 551, 245, 377, 127, 187, 219, 40, 413, 220, 481, 61, 192, 295, 344, 303, 417, 370, 459, 309, 240, 390, 270, 177, 133, 345, 428, 197, 199, 432, 305, 367, 54, 288, 105, 167, 317, 543, 408, 358, 414, 219, 87, 248, 57, 297, 261, 313, 270, 336, 451, 372, 386, 314, 230, 157, 399, 366, 372, 296, 550, 481, 26, 340, 414, 401, 407, 131, 131, 285, 185, 104, 439, 126, 259, 271, 190, 497, 207, 74, 42, 450, 247, 127, 498, 546, 294, 160, 11, 459, 488, 221, 354, 510, 251, 539, 68, 232, 336, 407, 344, 149, 244, 57, 19, 327, 381, 150, 243, 78, 159, 418, 178, 384, 233, 139, 250, 535, 229, 45, 33, 187, 300, 409, 314, 541, 290, 465, 292, 324, 436, 43, 417, 503, 457, 504, 403, 239, 288, 216, 503, 476, 467, 371, 309, 494, 168, 395, 347, 326, 507, 80, 88, 306, 146, 436, 395, 72, 518, 292, 522, 161, 167, 384, 387, 91, 332, 385, 24, 502, 316, 51, 28, 240, 49, 233, 141, 440, 510, 119, 482, 514, 333, 553, 542, 360, 335, 307, 452, 402, 125, 167, 237, 344, 338, 456, 523, 551, 392, 203, 444, 76, 567, 461, 50, 449, 529, 288, 308, 224, 125, 512, 498, 201, 205, 138, 406, 491, 495, 459, 507, 74, 442, 124, 169, 330, 100, 171, 492, 81, 98, 33, 530, 257, 273, 43, 202, 404, 8, 87, 4, 83, 135, 192, 57, 457, 566, 259, 78, 482, 196, 418, 289, 387, 427, 415, 179, 281, 256, 512, 87, 145, 329, 352, 520, 417, 250, 579, 246, 156, 53, 527, 240, 53, 4, 119, 382, 52, 137, 216, 347, 199, 455, 501, 75, 116, 460, 332, 74, 85, 205, 408, 243, 286, 400, 122, 142, 433, 545, 27, 309, 543, 433, 470, 480, 90, 221, 170, 251, 98, 394, 465, 527, 83, 67, 389, 233, 148, 241, 315, 534, 438, 396, 44, 74, 445, 211, 249, 60, 452, 511, 313, 198, 94, 376, 243, 482, 121, 204, 246, 293, 497, 383, 199, 270, 374, 32, 257, 406, 148, 353, 183, 183, 464, 3, 25, 166, 502, 275, 129, 388, 549, 550, 182, 338, 480, 266, 40, 434, 403, 138, 247, 407, 65, 506, 118, 55, 52, 503, 159, 553, 197, 529, 368, 153, 541, 250, 223, 336, 201, 465, 206, 194, 402, 203, 221, 415, 268, 451, 455, 354, 205, 477, 267, 302, 369, 82, 413, 251, 277, 173, 288, 544, 52, 557, 315, 69, 556, 560, 311, 322, 520, 538, 491, 317, 360, 139, 386, 414, 325, 133, 321, 369, 420, 321, 514, 485, 392, 6, 303, 450, 17, 98, 568, 350, 515, 142, 81, 118, 373, 149, 393, 288, 299, 184, 540, 49, 218, 74, 424, 322, 387, 375, 449, 81, 355, 352, 460, 73, 281, 148, 320, 477, 85, 450, 76, 37, 332, 411, 508, 513, 193, 63, 211, 531, 190, 327, 286, 210, 431, 164, 403, 119, 227, 381, 193, 93, 70, 365, 45, 265, 494, 408, 72, 254, 214, 174, 89, 76, 408, 270, 492, 133, 95, 201, 170, 194, 505, 479, 355, 279, 393, 467, 279, 544, 496, 330, 88, 113, 483, 154, 300, 139, 299, 193, 420, 131, 301, 296, 131, 204, 230, 531, 474, 120, 195, 56, 539, 43, 441, 544, 371, 76, 282, 331, 508, 324, 542, 193, 81, 163, 145, 55, 241, 310, 169, 35, 278, 210, 68, 473, 234, 246, 151, 48, 51, 514, 574, 334, 505, 344, 166, 416, 3, 190, 92, 84, 485, 434, 43, 72, 246, 142, 99, 261, 94, 176, 536, 557, 215, 315, 385, 263, 438, 106, 70, 564, 428, 8, 417, 82, 162, 347, 80, 196, 40, 33, 271, 401, 359, 434, 266, 97, 382, 197, 234, 482, 482, 270, 532, 416, 149, 133, 381, 511, 277, 224, 464, 547, 259, 172, 378, 553, 275, 284, 7, 370, 19, 191, 70, 531, 299, 180, 200, 508, 183, 149, 343, 218, 71, 341, 439, 428, 400, 11, 275, 181, 112, 272, 359, 26, 354, 75, 163, 451, 204, 312, 407, 467, 147, 300, 549, 138, 294, 290, 313, 33, 64, 66, 182, 353, 117, 327, 150, 143, 76, 403, 26, 288, 106, 197, 513, 310, 226, 523, 37, 267, 190, 193, 362, 186, 243, 210, 409, 489, 492, 491, 109, 305, 154, 85, 497, 201, 21, 536, 537, 232, 90, 128, 458, 447, 183, 97, 142, 496, 511, 427, 417, 495, 28, 465, 73, 172, 438, 91, 267, 259, 29, 380, 147, 532, 385, 256, 361, 360, 141, 503, 125, 148, 428, 335, 167, 264, 25, 230, 81, 388, 567, 218, 265, 306, 17, 75, 41, 163, 384, 219, 538, 559, 461, 419, 548, 126, 107, 194, 133, 430, 475, 301, 313, 384, 227, 157, 300, 166, 56, 549, 216, 169, 142, 514, 159, 395, 251, 360, 474, 354, 162, 251, 51, 181, 306, 471, 211, 379, 101, 177, 124, 304, 304, 559, 80, 514, 196, 153, 341, 343, 326, 369, 180, 198, 60, 231, 111, 284, 111, 557, 452, 280, 31, 27, 76, 115, 99, 40, 45, 439, 573, 69, 233, 388, 180, 408, 295, 365, 580, 201, 196, 212, 532, 63, 105, 160, 329, 58, 459, 286, 578, 116, 253, 191, 372, 279, 87, 509, 531, 549, 477, 533, 459, 358, 130, 236, 232, 285, 134, 327, 47, 500, 417, 463, 422, 428, 171, 494, 453, 336, 111, 383, 324, 441, 212, 353, 88, 302, 164, 467, 365, 522, 37, 404, 239, 479, 254, 424, 182, 489, 482, 509, 205, 499, 281, 440, 344, 558, 483, 56, 398, 47, 440, 64, 302, 90, 510, 277, 304, 213, 320, 300, 108, 498, 484, 379, 68, 433, 531, 157, 135, 407, 591, 341, 346, 316, 69, 537, 532, 51, 168, 155, 368, 466, 333, 174, 243, 489, 65, 523, 50, 370, 120, 129, 356, 302, 485, 436, 321];
min_time=[1, 9, 9, 9, 4, 4, 4, 4, 8, 2, 4, 10, 4, 10, 9, 3, 8, 2, 7, 1, 7, 9, 1, 5, 7, 9, 7, 7, 9, 8, 5, 1, 1, 4, 3, 5, 3, 1, 1, 1, 1, 2, 10, 7, 4, 3, 7, 7, 9, 2, 9, 2, 5, 10, 6, 9, 10, 1, 10, 3, 10, 5, 8, 4, 10, 2, 1, 5, 1, 10, 6, 10, 9, 10, 10, 4, 8, 3, 1, 10, 4, 9, 7, 5, 6, 3, 4, 7, 7, 10, 9, 10, 2, 7, 4, 5, 5, 2, 7, 10, 4, 1, 6, 4, 8, 5, 6, 4, 6, 7, 7, 3, 4, 10, 10, 8, 7, 4, 3, 9, 5, 3, 1, 10, 5, 10, 8, 4, 3, 8, 6, 9, 4, 10, 6, 2, 2, 4, 7, 3, 9, 2, 2, 1, 10, 5, 5, 8, 7, 1, 7, 4, 1, 9, 8, 7, 6, 3, 7, 10, 2, 7, 7, 5, 8, 9, 6, 10, 10, 5, 3, 6, 1, 9, 3, 6, 10, 10, 4, 9, 1, 3, 2, 8, 1, 10, 5, 9, 3, 9, 3, 9, 3, 5, 7, 10, 5, 9, 6, 10, 8, 1, 7, 4, 1, 5, 10, 6, 8, 10, 8, 10, 3, 7, 2, 2, 3, 8, 7, 7, 10, 5, 7, 4, 5, 7, 4, 6, 7, 9, 9, 4, 9, 5, 2, 8, 4, 2, 5, 4, 1, 3, 2, 3, 3, 10, 6, 3, 2, 4, 5, 7, 7, 5, 8, 9, 5, 4, 8, 3, 6, 10, 1, 5, 1, 4, 6, 1, 2, 5, 6, 2, 3, 6, 2, 8, 4, 4, 10, 3, 10, 9, 7, 6, 3, 8, 10, 10, 5, 3, 3, 8, 5, 5, 7, 9, 2, 10, 3, 3, 5, 1, 1, 8, 3, 4, 1, 1, 10, 7, 4, 4, 4, 9, 9, 9, 5, 7, 7, 8, 7, 9, 5, 3, 6, 10, 3, 2, 2, 1, 6, 9, 5, 9, 5, 4, 2, 4, 7, 7, 1, 4, 9, 6, 5, 4, 2, 8, 1, 1, 5, 10, 3, 6, 4, 2, 7, 5, 4, 2, 1, 6, 3, 7, 9, 8, 5, 5, 6, 4, 9, 10, 8, 9, 10, 9, 5, 10, 1, 1, 10, 6, 1, 4, 1, 4, 4, 2, 1, 6, 1, 7, 10, 3, 1, 7, 7, 1, 10, 10, 6, 4, 5, 3, 9, 3, 2, 4, 7, 8, 4, 5, 7, 1, 1, 8, 5, 6, 5, 2, 7, 7, 7, 1, 9, 4, 2, 8, 5, 3, 2, 3, 4, 1, 2, 7, 9, 4, 8, 9, 3, 9, 10, 7, 7, 9, 5, 1, 10, 2, 2, 7, 9, 1, 9, 1, 9, 3, 2, 10, 5, 8, 2, 9, 6, 2, 3, 7, 2, 4, 10, 7, 8, 7, 2, 2, 5, 2, 8, 3, 8, 5, 2, 8, 8, 6, 4, 1, 2, 6, 9, 8, 9, 4, 9, 1, 2, 2, 4, 10, 4, 3, 4, 5, 5, 3, 3, 9, 3, 2, 3, 10, 8, 7, 9, 7, 2, 9, 5, 8, 1, 4, 6, 9, 5, 1, 7, 4, 4, 9, 2, 6, 9, 6, 6, 7, 4, 9, 10, 1, 2, 4, 1, 3, 4, 3, 10, 1, 2, 4, 1, 4, 6, 6, 8, 8, 6, 3, 6, 2, 7, 9, 10, 4, 2, 6, 9, 10, 5, 7, 4, 3, 2, 3, 10, 2, 5, 6, 4, 2, 8, 1, 2, 9, 3, 7, 10, 8, 5, 7, 1, 7, 4, 2, 7, 7, 5, 4, 1, 4, 7, 10, 7, 5, 5, 4, 7, 1, 2, 7, 4, 9, 4, 5, 5, 2, 6, 8, 2, 7, 3, 4, 6, 1, 5, 1, 5, 4, 9, 8, 6, 7, 1, 9, 10, 5, 7, 7, 10, 6, 8, 3, 1, 7, 7, 3, 5, 3, 5, 4, 6, 5, 9, 6, 1, 5, 1, 4, 6, 6, 9, 9, 3, 6, 9, 5, 8, 3, 4, 4, 5, 2, 7, 10, 3, 3, 5, 1, 1, 3, 5, 1, 2, 9, 9, 7, 6, 5, 6, 7, 9, 3, 9, 4, 8, 5, 3, 8, 10, 7, 4, 6, 6, 3, 4, 2, 3, 3, 3, 8, 5, 6, 7, 4, 8, 10, 1, 10, 6, 5, 8, 10, 7, 3, 7, 3, 1, 7, 7, 4, 5, 4, 6, 7, 7, 6, 5, 3, 7, 6, 6, 2, 8, 6, 1, 7, 6, 2, 3, 6, 7, 6, 4, 7, 10, 4, 10, 2, 1, 5, 3, 10, 7, 5, 6, 2, 9, 6, 7, 2, 9, 4, 9, 7, 5, 6, 5, 1, 5, 4, 3, 10, 3, 3, 1, 4, 4, 3, 8, 8, 4, 9, 10, 9, 6, 6, 10, 3, 8, 1, 6, 10, 3, 8, 6, 7, 8, 5, 10, 8, 9, 6, 10, 1, 9, 1, 2, 4, 2, 6, 3, 7, 5, 3, 1, 6, 6, 5, 8, 1, 6, 10, 7, 10, 9, 9, 6, 5, 3, 8, 6, 5, 10, 9, 8, 6, 7, 4, 4, 10, 3, 8, 2, 2, 2, 3, 9, 9, 10, 6, 4, 6, 6, 9, 3, 1, 8, 4, 4, 2, 8, 10, 10, 4, 1, 5, 2, 3, 1, 9, 7, 10, 4, 7, 9, 7, 10, 4, 4, 6, 3, 10, 6, 2, 10, 10, 4, 5, 3, 3, 3, 2, 5, 2, 9, 6, 4, 9, 5, 7, 3, 1, 2, 4, 8, 6, 5, 2, 9, 2, 8, 9, 4, 7, 1, 2, 3, 1, 4, 1, 8, 5, 6, 2, 1, 3, 10, 9, 7, 1, 2, 7, 6, 5, 1, 5, 2, 8, 9, 3, 5, 10, 8, 5, 7, 9, 8, 7, 10, 9, 4, 7, 1, 6, 6, 8, 6, 8, 10, 2, 4, 6, 2, 9, 3, 5, 4, 4, 7, 6, 6, 9, 8, 9, 1, 3, 3, 7, 10, 10, 9, 3, 3, 9, 7, 7, 2, 8, 3, 9];
max_time=[10, 10, 10, 10, 10, 10, 10, 10, 10, 10, 10, 10, 10, 10, 10, 10, 10, 10, 10, 10, 10, 10, 10, 10, 10, 10, 10, 10, 10, 10, 10, 10, 10, 10, 10, 10, 10, 10, 10, 10, 10, 10, 10, 10, 10, 10, 10, 10, 10, 10, 10, 10, 10, 10, 10, 10, 10, 10, 10, 10, 10, 10, 10, 10, 10, 10, 10, 10, 10, 10, 10, 10, 10, 10, 10, 10, 10, 10, 10, 10, 10, 10, 10, 10, 10, 10, 10, 10, 10, 10, 10, 10, 10, 10, 10, 10, 10, 10, 10, 10, 10, 10, 10, 10, 10, 10, 10, 10, 10, 10, 10, 10, 10, 10, 10, 10, 10, 10, 10, 10, 10, 10, 10, 10, 10, 10, 10, 10, 10, 10, 10, 10, 10, 10, 10, 10, 10, 10, 10, 10, 10, 10, 10, 10, 10, 10, 10, 10, 10, 10, 10, 10, 10, 10, 10, 10, 10, 10, 10, 10, 10, 10, 10, 10, 10, 10, 10, 10, 10, 10, 10, 10, 10, 10, 10, 10, 10, 10, 10, 10, 10, 10, 10, 10, 10, 10, 10, 10, 10, 10, 10, 10, 10, 10, 10, 10, 10, 10, 10, 10, 10, 10, 10, 10, 10, 10, 10, 10, 10, 10, 10, 10, 10, 10, 10, 10, 10, 10, 10, 10, 10, 10, 10, 10, 10, 10, 10, 10, 10, 10, 10, 10, 10, 10, 10, 10, 10, 10, 10, 10, 10, 10, 10, 10, 10, 10, 10, 10, 10, 10, 10, 10, 10, 10, 10, 10, 10, 10, 10, 10, 10, 10, 10, 10, 10, 10, 10, 10, 10, 10, 10, 10, 10, 10, 10, 10, 10, 10, 10, 10, 10, 10, 10, 10, 10, 10, 10, 10, 10, 10, 10, 10, 10, 10, 10, 10, 10, 10, 10, 10, 10, 10, 10, 10, 10, 10, 10, 10, 10, 10, 10, 10, 10, 10, 10, 10, 10, 10, 10, 10, 10, 10, 10, 10, 10, 10, 10, 10, 10, 10, 10, 10, 10, 10, 10, 10, 10, 10, 10, 10, 10, 10, 10, 10, 10, 10, 10, 10, 10, 10, 10, 10, 10, 10, 10, 10, 10, 10, 10, 10, 10, 10, 10, 10, 10, 10, 10, 10, 10, 10, 10, 10, 10, 10, 10, 10, 10, 10, 10, 10, 10, 10, 10, 10, 10, 10, 10, 10, 10, 10, 10, 10, 10, 10, 10, 10, 10, 10, 10, 10, 10, 10, 10, 10, 10, 10, 10, 10, 10, 10, 10, 10, 10, 10, 10, 10, 10, 10, 10, 10, 10, 10, 10, 10, 10, 10, 10, 10, 10, 10, 10, 10, 10, 10, 10, 10, 10, 10, 10, 10, 10, 10, 10, 10, 10, 10, 10, 10, 10, 10, 10, 10, 10, 10, 10, 10, 10, 10, 10, 10, 10, 10, 10, 10, 10, 10, 10, 10, 10, 10, 10, 10, 10, 10, 10, 10, 10, 10, 10, 10, 10, 10, 10, 10, 10, 10, 10, 10, 10, 10, 10, 10, 10, 10, 10, 10, 10, 10, 10, 10, 10, 10, 10, 10, 10, 10, 10, 10, 10, 10, 10, 10, 10, 10, 10, 10, 10, 10, 10, 10, 10, 10, 10, 10, 10, 10, 10, 10, 10, 10, 10, 10, 10, 10, 10, 10, 10, 10, 10, 10, 10, 10, 10, 10, 10, 10, 10, 10, 10, 10, 10, 10, 10, 10, 10, 10, 10, 10, 10, 10, 10, 10, 10, 10, 10, 10, 10, 10, 10, 10, 10, 10, 10, 10, 10, 10, 10, 10, 10, 10, 10, 10, 10, 10, 10, 10, 10, 10, 10, 10, 10, 10, 10, 10, 10, 10, 10, 10, 10, 10, 10, 10, 10, 10, 10, 10, 10, 10, 10, 10, 10, 10, 10, 10, 10, 10, 10, 10, 10, 10, 10, 10, 10, 10, 10, 10, 10, 10, 10, 10, 10, 10, 10, 10, 10, 10, 10, 10, 10, 10, 10, 10, 10, 10, 10, 10, 10, 10, 10, 10, 10, 10, 10, 10, 10, 10, 10, 10, 10, 10, 10, 10, 10, 10, 10, 10, 10, 10, 10, 10, 10, 10, 10, 10, 10, 10, 10, 10, 10, 10, 10, 10, 10, 10, 10, 10, 10, 10, 10, 10, 10, 10, 10, 10, 10, 10, 10, 10, 10, 10, 10, 10, 10, 10, 10, 10, 10, 10, 10, 10, 10, 10, 10, 10, 10, 10, 10, 10, 10, 10, 10, 10, 10, 10, 10, 10, 10, 10, 10, 10, 10, 10, 10, 10, 10, 10, 10, 10, 10, 10, 10, 10, 10, 10, 10, 10, 10, 10, 10, 10, 10, 10, 10, 10, 10, 10, 10, 10, 10, 10, 10, 10, 10, 10, 10, 10, 10, 10, 10, 10, 10, 10, 10, 10, 10, 10, 10, 10, 10, 10, 10, 10, 10, 10, 10, 10, 10, 10, 10, 10, 10, 10, 10, 10, 10, 10, 10, 10, 10, 10, 10, 10, 10, 10, 10, 10, 10, 10, 10, 10, 10, 10, 10, 10, 10, 10, 10, 10, 10, 10, 10, 10, 10, 10, 10, 10, 10, 10, 10, 10, 10, 10, 10, 10, 10, 10, 10, 10, 10, 10, 10, 10, 10, 10, 10, 10, 10, 10, 10, 10, 10, 10, 10, 10, 10, 10, 10, 10, 10, 10, 10, 10, 10, 10, 10, 10, 10, 10, 10, 10, 10, 10, 10, 10, 10, 10, 10, 10, 10, 10, 10, 10, 10, 10, 10, 10, 10, 10, 10, 10, 10, 10, 10, 10, 10, 10, 10, 10, 10, 10, 10, 10, 10, 10, 10, 10, 10, 10, 10, 10, 10, 10, 10, 10, 10, 10, 10, 10, 10, 10, 10, 10, 10, 10, 10, 10, 10, 10, 10, 10, 10, 10, 10, 10, 10, 10, 10, 10, 10, 10, 10, 10, 10, 10, 10, 10, 10, 10, 10, 10, 10, 10, 10, 10, 10, 10, 10, 10, 10, 10, 10, 10, 10, 10, 10, 10, 10, 10, 10, 10, 10, 10, 10, 10, 10, 10, 10, 10, 10, 10, 10, 10, 10, 10, 10, 10, 10, 10, 10, 10, 10, 10, 10, 10, 10, 10, 10, 10, 10, 10];
size=[6, 5, 16, 1, 17, 12, 8, 14, 4, 2, 3, 8, 15, 14, 14, 14, 6, 8, 17, 19, 13, 14, 3, 12, 11, 11, 14, 14, 17, 13, 19, 19, 8, 3, 2, 16, 15, 15, 11, 7, 14, 10, 6, 8, 17, 19, 17, 14, 11, 18, 2, 17, 19, 11, 12, 1, 9, 13, 8, 20, 12, 20, 2, 18, 16, 7, 16, 12, 10, 2, 13, 6, 12, 12, 11, 9, 12, 6, 5, 9, 4, 17, 1, 18, 20, 2, 18, 2, 16, 15, 17, 11, 2, 10, 13, 9, 2, 13, 17, 1, 13, 10, 13, 15, 19, 14, 19, 18, 14, 11, 9, 8, 2, 14, 11, 3, 13, 4, 17, 10, 13, 5, 20, 8, 8, 1, 5, 17, 19, 3, 3, 14, 7, 6, 11, 3, 18, 9, 14, 14, 9, 4, 13, 2, 19, 3, 4, 4, 10, 12, 7, 10, 12, 15, 13, 3, 4, 10, 2, 11, 3, 4, 15, 10, 13, 9, 15, 3, 11, 7, 12, 13, 12, 13, 18, 10, 17, 15, 12, 16, 5, 3, 13, 20, 16, 14, 9, 6, 9, 9, 13, 9, 14, 17, 10, 14, 12, 4, 10, 15, 9, 19, 4, 15, 15, 10, 11, 3, 1, 8, 3, 19, 17, 11, 6, 12, 2, 8, 8, 6, 16, 16, 14, 10, 19, 9, 2, 4, 5, 15, 10, 18, 19, 11, 17, 16, 6, 14, 5, 3, 18, 6, 4, 17, 16, 11, 5, 10, 20, 10, 11, 4, 11, 19, 1, 12, 1, 9, 13, 18, 14, 15, 4, 20, 18, 6, 6, 19, 5, 19, 17, 18, 17, 17, 12, 19, 9, 1, 14, 2, 15, 9, 2, 2, 19, 19, 8, 9, 9, 4, 20, 13, 15, 20, 19, 13, 2, 5, 1, 2, 6, 7, 16, 10, 3, 8, 8, 15, 17, 8, 18, 9, 11, 11, 13, 8, 12, 11, 1, 2, 16, 5, 10, 2, 16, 14, 5, 20, 18, 10, 13, 18, 8, 5, 19, 14, 15, 7, 1, 10, 15, 16, 5, 5, 3, 5, 15, 11, 13, 8, 19, 2, 6, 7, 5, 15, 19, 14, 12, 14, 7, 16, 20, 2, 6, 14, 18, 14, 12, 6, 11, 8, 18, 20, 15, 3, 5, 20, 14, 1, 7, 15, 8, 4, 5, 5, 20, 8, 6, 2, 16, 12, 6, 18, 14, 16, 16, 8, 18, 4, 20, 14, 12, 9, 15, 14, 14, 7, 3, 15, 1, 11, 8, 7, 13, 9, 16, 5, 11, 3, 14, 18, 2, 9, 7, 9, 12, 2, 13, 7, 6, 1, 8, 17, 9, 17, 7, 14, 13, 16, 18, 13, 17, 4, 13, 20, 14, 5, 5, 6, 4, 5, 18, 20, 2, 1, 14, 2, 1, 19, 9, 17, 19, 6, 19, 19, 6, 11, 17, 3, 8, 11, 20, 12, 2, 16, 2, 8, 19, 18, 3, 8, 9, 15, 1, 9, 16, 4, 14, 16, 6, 11, 8, 2, 11, 13, 18, 2, 9, 19, 10, 7, 11, 12, 15, 3, 2, 3, 1, 8, 17, 13, 12, 11, 4, 1, 18, 8, 11, 12, 17, 18, 4, 16, 2, 1, 18, 17, 17, 7, 1, 15, 1, 17, 18, 6, 16, 2, 11, 20, 8, 5, 14, 16, 19, 10, 7, 20, 18, 5, 3, 9, 5, 5, 15, 13, 5, 18, 8, 11, 18, 3, 19, 13, 5, 9, 3, 12, 9, 14, 6, 17, 11, 9, 13, 16, 2, 3, 13, 9, 14, 20, 2, 8, 3, 12, 6, 12, 18, 15, 17, 11, 1, 15, 12, 19, 5, 15, 19, 1, 10, 1, 13, 11, 7, 5, 13, 5, 17, 11, 2, 13, 5, 6, 17, 19, 7, 19, 1, 9, 1, 7, 7, 14, 11, 14, 13, 2, 9, 5, 2, 15, 8, 20, 17, 4, 12, 19, 1, 19, 7, 4, 10, 6, 17, 15, 1, 3, 9, 13, 2, 17, 2, 19, 14, 6, 12, 11, 20, 20, 5, 16, 1, 1, 15, 3, 1, 15, 3, 20, 11, 5, 8, 6, 7, 15, 9, 17, 20, 9, 7, 3, 3, 8, 19, 17, 9, 12, 2, 8, 2, 6, 12, 9, 3, 5, 6, 16, 1, 9, 10, 4, 10, 11, 7, 1, 5, 16, 3, 11, 6, 11, 11, 15, 8, 2, 3, 19, 19, 12, 1, 17, 3, 7, 5, 13, 7, 9, 8, 6, 17, 19, 10, 8, 17, 2, 13, 15, 19, 6, 10, 20, 3, 5, 16, 15, 10, 12, 15, 11, 17, 4, 6, 20, 12, 12, 12, 18, 20, 2, 17, 9, 20, 8, 8, 16, 11, 17, 2, 17, 15, 1, 7, 11, 11, 13, 17, 8, 14, 2, 4, 14, 20, 1, 17, 5, 20, 5, 12, 1, 12, 20, 20, 18, 11, 11, 9, 11, 19, 20, 18, 13, 6, 1, 7, 9, 6, 17, 2, 15, 2, 16, 10, 6, 9, 15, 14, 1, 15, 8, 14, 1, 12, 9, 7, 19, 15, 19, 13, 17, 1, 14, 10, 10, 8, 12, 19, 5, 9, 4, 2, 13, 20, 6, 10, 9, 2, 17, 7, 2, 3, 7, 7, 19, 3, 13, 10, 17, 8, 7, 5, 19, 6, 20, 5, 15, 9, 13, 10, 4, 1, 6, 20, 8, 19, 1, 2, 6, 5, 19, 11, 19, 15, 15, 10, 17, 12, 6, 5, 1, 4, 20, 2, 3, 17, 14, 1, 1, 4, 9, 3, 19, 18, 10, 11, 14, 16, 12, 1, 18, 17, 4, 10, 12, 15, 12, 9, 1, 15, 1, 11, 20, 11, 6, 15, 15, 11, 15, 3, 19, 4, 11, 3, 3, 17, 19, 16, 11, 9, 1, 20, 1, 19, 1, 5, 4, 19, 12, 13, 3, 17, 10, 17, 16, 17, 12, 15, 10, 8, 9, 13, 17, 14, 2, 8, 18, 14, 9, 5, 18, 12, 14, 2, 17, 15, 1, 10, 15, 1, 5, 11, 7, 1, 2, 7, 19, 17, 11, 20, 18, 15, 6, 17, 1, 4, 11, 20, 11, 14, 18];
attribute=[2, 2, 3, 2, 5, 3, 4, 4, 5, 3, 1, 1, 5, 1, 5, 3, 2, 1, 1, 4, 2, 2, 4, 1, 5, 2, 3, 4, 4, 1, 3, 4, 5, 1, 4, 5, 5, 2, 2, 1, 4, 2, 5, 2, 1, 4, 1, 1, 3, 3, 4, 1, 2, 2, 4, 3, 1, 1, 3, 2, 1, 2, 3, 2, 4, 3, 4, 4, 2, 2, 5, 5, 5, 2, 2, 4, 3, 1, 4, 3, 3, 2, 3, 4, 2, 2, 5, 5, 1, 2, 3, 5, 3, 4, 4, 3, 1, 3, 1, 2, 4, 5, 2, 1, 2, 1, 4, 3, 4, 2, 4, 5, 5, 1, 5, 5, 5, 3, 4, 1, 1, 3, 2, 4, 1, 3, 3, 5, 3, 5, 4, 5, 2, 2, 5, 4, 2, 5, 3, 4, 2, 2, 1, 5, 3, 3, 1, 5, 5, 4, 2, 1, 1, 5, 3, 1, 1, 5, 5, 4, 1, 5, 3, 4, 2, 5, 5, 5, 5, 3, 3, 3, 4, 1, 3, 2, 5, 3, 5, 2, 4, 2, 3, 2, 4, 4, 3, 4, 3, 2, 4, 1, 2, 2, 1, 3, 3, 3, 4, 4, 1, 1, 2, 1, 5, 1, 5, 4, 5, 3, 3, 2, 1, 3, 2, 5, 4, 4, 1, 2, 4, 5, 4, 4, 4, 5, 1, 4, 3, 5, 4, 4, 4, 1, 1, 4, 1, 3, 2, 2, 2, 3, 4, 1, 3, 5, 3, 1, 1, 4, 5, 3, 4, 4, 5, 2, 2, 1, 4, 3, 1, 1, 4, 4, 5, 3, 3, 5, 2, 4, 1, 5, 1, 2, 1, 5, 4, 3, 4, 2, 5, 2, 5, 2, 2, 1, 1, 5, 4, 1, 2, 2, 1, 1, 2, 5, 2, 2, 1, 4, 4, 4, 3, 5, 4, 2, 3, 1, 2, 3, 2, 5, 3, 1, 2, 1, 5, 1, 3, 5, 2, 5, 4, 1, 3, 4, 3, 5, 4, 4, 2, 1, 1, 1, 1, 1, 2, 5, 1, 2, 3, 4, 2, 1, 1, 3, 2, 3, 2, 1, 3, 1, 1, 4, 4, 5, 5, 3, 4, 1, 1, 4, 4, 4, 1, 3, 1, 2, 4, 4, 1, 1, 3, 5, 5, 2, 3, 2, 5, 1, 5, 5, 2, 1, 4, 4, 3, 5, 2, 2, 5, 4, 5, 2, 3, 5, 5, 3, 3, 4, 1, 2, 5, 1, 1, 5, 5, 1, 4, 3, 5, 2, 3, 4, 2, 1, 2, 3, 1, 3, 5, 4, 4, 1, 3, 3, 3, 3, 1, 2, 5, 4, 3, 5, 1, 2, 3, 3, 1, 1, 1, 1, 5, 1, 1, 3, 4, 5, 3, 2, 4, 1, 5, 1, 1, 5, 2, 2, 1, 1, 3, 2, 4, 4, 4, 2, 3, 1, 4, 5, 3, 1, 5, 5, 4, 2, 4, 4, 2, 4, 2, 2, 3, 4, 4, 3, 3, 4, 4, 2, 3, 1, 2, 2, 1, 2, 4, 5, 3, 3, 4, 3, 4, 3, 4, 3, 3, 5, 3, 2, 2, 4, 4, 5, 3, 2, 1, 2, 1, 3, 4, 1, 5, 2, 2, 5, 3, 3, 5, 5, 4, 3, 3, 2, 2, 3, 1, 3, 3, 4, 5, 5, 1, 3, 3, 2, 3, 1, 4, 4, 1, 2, 2, 1, 1, 4, 2, 2, 2, 3, 1, 1, 3, 5, 2, 5, 2, 5, 2, 5, 3, 2, 2, 5, 5, 2, 2, 1, 4, 1, 2, 4, 1, 4, 4, 5, 1, 5, 4, 2, 5, 2, 5, 2, 5, 1, 4, 2, 1, 3, 4, 2, 5, 5, 5, 3, 5, 1, 3, 4, 5, 2, 2, 5, 2, 2, 5, 2, 2, 3, 3, 2, 4, 5, 1, 2, 5, 1, 4, 5, 2, 5, 5, 3, 2, 3, 4, 4, 1, 5, 4, 3, 2, 4, 5, 3, 5, 4, 2, 2, 4, 5, 4, 2, 1, 1, 5, 5, 5, 2, 4, 3, 5, 2, 4, 3, 5, 2, 1, 5, 3, 1, 4, 4, 4, 4, 2, 2, 3, 5, 5, 3, 1, 1, 1, 5, 3, 5, 1, 2, 5, 5, 2, 2, 3, 2, 3, 1, 4, 3, 4, 2, 1, 1, 5, 4, 4, 2, 2, 1, 4, 2, 3, 5, 1, 5, 3, 1, 3, 1, 3, 1, 2, 3, 2, 4, 2, 5, 2, 4, 2, 4, 2, 3, 2, 2, 5, 2, 2, 4, 5, 2, 3, 1, 1, 2, 4, 3, 2, 2, 5, 2, 4, 1, 2, 3, 1, 2, 2, 3, 4, 5, 1, 4, 4, 4, 2, 5, 5, 4, 2, 5, 5, 3, 4, 3, 2, 3, 4, 1, 2, 2, 3, 3, 2, 1, 2, 5, 1, 2, 3, 2, 4, 4, 2, 4, 5, 5, 1, 2, 5, 4, 4, 2, 3, 2, 1, 3, 1, 2, 4, 4, 2, 5, 2, 2, 5, 5, 3, 4, 3, 1, 4, 1, 4, 4, 1, 2, 5, 4, 2, 4, 5, 3, 1, 2, 5, 2, 5, 4, 4, 5, 2, 5, 4, 4, 5, 3, 2, 5, 2, 2, 4, 1, 4, 1, 4, 1, 3, 5, 3, 2, 1, 4, 3, 1, 2, 5, 5, 2, 5, 1, 5, 1, 3, 1, 3, 4, 3, 1, 4, 3, 4, 3, 3, 2, 2, 1, 5, 4, 4, 4, 1, 5, 5, 4, 3, 1, 1, 5, 1, 1, 2, 1, 2, 3, 1, 2, 3, 2, 3, 2, 2, 3, 5, 3, 2, 4, 2, 1, 5, 4, 3, 1, 4, 1, 5, 5, 5, 2, 5, 4, 1, 1, 4, 3, 4, 3, 5, 5, 3, 2, 3, 4, 5, 5, 1, 4, 2, 3, 5, 1, 4, 1, 2, 5, 2, 2, 2, 3, 3, 3, 1, 5, 4, 1, 4, 3, 2, 2, 1, 5, 5, 4, 1, 1, 4, 2, 1, 3, 3, 5, 1, 2, 4, 2, 1, 2, 1, 3, 1, 1, 1, 4, 1, 1, 2, 1, 5, 2];

upper_bound_integer_objective=30000;
mult_factor_total_runtime=2;
mult_factor_finished_toolate=12;
mult_factor_total_setuptimes=0;
mult_factor_total_setupcosts=2;
running_time_bound=5483;
min_duration=1;
max_duration=10;
max_setup_time=3;
max_setup_cost=3;